
Log started (V12.10.0.0) Sun Apr  4 08:32:49 2021


Problem 'asset.lp' read.
Read time = 0.01 sec. (0.25 ticks)
New value for default parallel thread count: 1
New value for time limit in seconds: 300
Version identifier: 12.10.0.0 | 2019-11-26 | 843d4de
CPXPARAM_Threads                                 1
CPXPARAM_TimeLimit                               300
Found incumbent of value -0.889378 after 0.00 sec. (0.11 ticks)
Tried aggregator 3 times.
MIP Presolve eliminated 879 rows and 585 columns.
MIP Presolve modified 2249 coefficients.
Aggregator did 644 substitutions.
Reduced MIP has 828 rows, 859 columns, and 3831 nonzeros.
Reduced MIP has 768 binaries, 54 generals, 0 SOSs, and 0 indicators.
Presolve time = 0.01 sec. (8.98 ticks)
Probing fixed 115 vars, tightened 9 bounds.
Probing time = 0.01 sec. (6.09 ticks)
Cover probing fixed 0 vars, tightened 51 bounds.
Tried aggregator 1 time.
MIP Presolve eliminated 138 rows and 133 columns.
MIP Presolve modified 242 coefficients.
Reduced MIP has 690 rows, 722 columns, and 3019 nonzeros.
Reduced MIP has 644 binaries, 41 generals, 0 SOSs, and 0 indicators.
Presolve time = 0.00 sec. (1.88 ticks)
Probing time = 0.00 sec. (2.72 ticks)
Tried aggregator 1 time.
Detecting symmetries...
MIP Presolve modified 176 coefficients.
Reduced MIP has 690 rows, 722 columns, and 3019 nonzeros.
Reduced MIP has 644 binaries, 41 generals, 0 SOSs, and 0 indicators.
Presolve time = 0.00 sec. (2.13 ticks)
Probing time = 0.00 sec. (2.72 ticks)
Clique table members: 2140.
MIP emphasis: balance optimality and feasibility.
MIP search method: dynamic search.
Parallel mode: none, using 1 thread.
Root relaxation solution time = 0.01 sec. (7.55 ticks)

        Nodes                                         Cuts/
   Node  Left     Objective  IInf  Best Integer    Best Bound    ItCnt     Gap

*     0+    0                           -0.8894      388.9606              --- 
      0     0      326.0112   212       -0.8894      326.0112      450     --- 
      0     0      318.7963   212       -0.8894     Cuts: 272      735     --- 
      0     0      313.9616   212       -0.8894     Cuts: 272     1157     --- 
      0     0      312.2220   212       -0.8894     Cuts: 255     1511     --- 
      0     0      311.4623   212       -0.8894     Cuts: 184     1714     --- 
      0     0      310.5789   212       -0.8894     Cuts: 144     1833     --- 
Detecting symmetries...
      0     0      309.7547   212       -0.8894     Cuts: 134     1947     --- 
      0     0      308.7599   212       -0.8894     Cuts: 112     2193     --- 
      0     0      308.3711   212       -0.8894     Cuts: 173     2289     --- 
*     0+    0                            9.0396      308.3711              --- 
      0     0      308.2870   212        9.0396     Cuts: 127     2370     --- 
      0     0      308.2867   212        9.0396     Cuts: 109     2438     --- 
      0     0      308.2867   212        9.0396      Cuts: 86     2469     --- 
*     0+    0                          111.1173      308.2867           177.44%
*     0+    0                          115.8263      308.2867           166.16%
*     0+    0                          135.6537      308.2867           127.26%
*     0+    0                          143.5400      308.2867           114.77%
      0     0        cutoff            143.5400      308.2867     2469  114.77%
Detecting symmetries...
      0     2      308.2867   214      143.5400      308.2207     2469  114.73%
Elapsed time = 0.33 sec. (360.02 ticks, tree = 0.01 MB, solutions = 5)
*    30+   28                          216.3776      307.7775            42.24%
*    50+   47                          216.3781      307.7775            42.24%
     69    63      276.4236   176      216.3781      305.9016     6357   41.37%
*   100+   58                          218.7273      305.9016            39.86%
*   130+   88                          233.6994      305.9016            30.90%
*   140+   98                          234.1825      305.9016            30.63%
    140   100      238.8621    63      234.1825      305.9016    10976   30.63%
*   170+  121                          235.6348      305.9016            29.82%
*   175   123      integral     0      235.6349      305.9016    11155   29.82%
*   210+  118                          249.3267      305.4811            22.52%
*   230+  136                          251.6548      305.4811            21.39%
    251   158      293.2321   154      251.6548      305.2851    14218   21.31%
*   330+  208                          251.9957      305.2848            21.15%
    372   239      260.6827   123      251.9957      303.4686    18182   20.43%

Performing restart 1

Repeating presolve.
Tried aggregator 2 times.
MIP Presolve modified 445 coefficients.
Aggregator did 6 substitutions.
Reduced MIP has 684 rows, 716 columns, and 2650 nonzeros.
Reduced MIP has 638 binaries, 41 generals, 0 SOSs, and 0 indicators.
Presolve time = 0.00 sec. (3.10 ticks)
Tried aggregator 1 time.
Reduced MIP has 684 rows, 716 columns, and 2650 nonzeros.
Reduced MIP has 638 binaries, 41 generals, 0 SOSs, and 0 indicators.
Presolve time = 0.00 sec. (2.03 ticks)
Represolve time = 0.02 sec. (15.68 ticks)
    466     0      269.7114   184      251.9957     Cuts: 271    22054    7.03%
    466     0      261.5038   184      251.9957     Cuts: 124    22309    3.77%
    466     0      259.6810   184      251.9957     Cuts: 121    22509    3.05%
    466     0      254.3487   184      251.9957      Cuts: 75    22743    0.93%
*   466+    0                          251.9960      254.3487             0.93%
*   466+    0                          251.9961      254.3487             0.93%
    466     0        cutoff            251.9961      254.3487    22743    0.93%

Repeating presolve.
Tried aggregator 2 times.
MIP Presolve eliminated 316 rows and 248 columns.
MIP Presolve modified 367 coefficients.
Aggregator did 15 substitutions.
Reduced MIP has 353 rows, 451 columns, and 2458 nonzeros.
Reduced MIP has 389 binaries, 32 generals, 0 SOSs, and 0 indicators.
Presolve time = 0.00 sec. (3.51 ticks)
Tried aggregator 1 time.
MIP Presolve eliminated 53 rows and 49 columns.
MIP Presolve modified 56 coefficients.
Reduced MIP has 300 rows, 402 columns, and 1974 nonzeros.
Reduced MIP has 343 binaries, 32 generals, 0 SOSs, and 0 indicators.
Presolve time = 0.00 sec. (1.76 ticks)
Tried aggregator 1 time.
Reduced MIP has 300 rows, 402 columns, and 1974 nonzeros.
Reduced MIP has 343 binaries, 32 generals, 0 SOSs, and 0 indicators.
Presolve time = 0.00 sec. (1.30 ticks)
Represolve time = 0.03 sec. (20.40 ticks)
    466     0      252.0041    86      251.9961      Cuts: 85    23350    0.00%

GUB cover cuts applied:  7
Clique cuts applied:  29
Implied bound cuts applied:  8
Flow cuts applied:  10
Mixed integer rounding cuts applied:  28
Zero-half cuts applied:  10
Lift and project cuts applied:  4
Gomory fractional cuts applied:  12

Root node processing (before b&c):
  Real time             =    0.33 sec. (360.26 ticks)
Sequential b&c:
  Real time             =    1.35 sec. (1576.10 ticks)
                          ------------
Total (root+branch&cut) =    1.69 sec. (1936.37 ticks)

Solution pool: 18 solutions saved.

MIP - Integer optimal, tolerance (0.0001/1e-06):  Objective =  2.5199609807e+02
Current MIP best bound =  2.5200411271e+02 (gap = 0.00801464, 0.00%)
Solution time =    1.69 sec.  Iterations = 23350  Nodes = 466 (1)
Deterministic time = 1936.37 ticks  (1146.21 ticks/sec)


Incumbent solution
Variable Name           Solution Value
F                           270.000000
f1                            0.923902
f2                           17.080000
y21                           1.000000
y46                           1.000000
y82                           1.000000
y126                          1.000000
y190                          1.000000
y18                           1.000000
y198                          1.000000
y66                           1.000000
y240                          1.000000
y33                           1.000000
y173                          1.000000
y238                          1.000000
y197                          1.000000
y186                          1.000000
y106                          1.000000
y257                          1.000000
y177                          1.000000
y180                          1.000000
s2                            6.000000
s21                           6.520870
s44                           6.000000
s46                           6.446462
s70                           6.000000
s80                           6.000000
s82                           6.556235
s90                           6.000000
s109                          6.000000
s115                          6.000000
s120                          6.000000
s126                          6.615770
s172                          6.000000
s179                          6.000000
s204                          6.000000
s206                          6.000000
s214                          6.000000
s222                          6.000000
s264                          6.000000
s105                          6.010000
s5                            6.210000
s190                          7.111932
s84                           6.230000
s137                          6.280000
s178                          6.280000
s135                          6.290000
s73                           6.470000
s64                           6.540000
s18                           7.538878
s198                          7.153408
s66                           7.634326
s240                          7.403204
s33                           7.397173
s122                          6.890000
s173                          7.759181
s238                          7.499513
s145                          6.920000
s197                          7.892014
s19                           6.970000
s25                           6.980000
s186                          7.540626
s106                          7.927755
s210                          7.070000
s257                          7.931928
s61                           7.100000
s216                          7.150000
s177                          7.559609
s180                          7.926039
x243x21x1                     1.000000
x27x82x1                      2.000000
x205x126x1                    2.000000
x29x66x1                      1.000000
x20x190x1                     1.000000
x110x18x1                     1.000000
x9x18x1                       1.000000
x9x66x1                       1.000000
x248x46x1                     1.000000
x243x21x2                     1.000000
x29x173x2                     1.000000
x7x198x2                      1.000000
x20x190x2                     1.000000
x256x238x2                    1.000000
x218x177x2                    2.000000
x110x33x2                     1.000000
x196x186x2                    1.000000
x266x46x3                     1.000000
x223x198x3                    1.000000
x223x33x3                     1.000000
x7x240x3                      1.000000
x227x238x3                    1.000000
x227x106x3                    1.000000
x256x240x3                    1.000000
x196x186x3                    1.000000
x21x257x1                     1.000000
x21x106x2                     1.000000
x46x173x1                     1.000000
x46x197x3                     1.000000
x82x180x1                     2.000000
x126x197x1                    1.000000
x126x257x1                    1.000000
x190x0x1                      1.000000
x190x0x2                      1.000000
x18x0x1                       2.000000
x198x0x2                      1.000000
x198x0x3                      1.000000
x66x0x1                       2.000000
x240x0x3                      2.000000
x33x0x2                       1.000000
x33x0x3                       1.000000
x173x0x1                      1.000000
x173x0x2                      1.000000
x238x0x2                      1.000000
x238x0x3                      1.000000
x197x0x1                      1.000000
x197x0x3                      1.000000
x186x0x2                      1.000000
x186x0x3                      1.000000
x106x0x2                      1.000000
x106x0x3                      1.000000
x257x0x1                      2.000000
x177x0x2                      2.000000
x180x0x1                      2.000000
s243                          5.027398
z243z21z1                     1.000000
z243z21z2                     1.000000
z243z66z1                     1.000000
z243z257z1                    1.000000
z243z61z2                     1.000000
z243z177z2                    1.000000
z243z180z1                    1.000000
s27                           5.189421
z27z82z1                      1.000000
z27z257z1                     1.000000
z27z180z1                     1.000000
s205                          5.257115
z205z126z1                    1.000000
z205z257z1                    1.000000
z205z180z1                    1.000000
s266                          4.911545
z266z46z3                     1.000000
z266z240z3                    1.000000
z266z145z3                    1.000000
z266z25z3                     1.000000
z266z216z3                    1.000000
s223                          5.482501
z223z198z3                    1.000000
z223z33z3                     1.000000
s29                           5.946315
z29z66z1                      1.000000
z29z173z2                     1.000000
s7                            5.668348
z7z198z2                      1.000000
z7z240z3                      1.000000
s20                           5.484179
z20z190z1                     1.000000
z20z190z2                     1.000000
z20z180z1                     1.000000
s227                          5.690000
z227z240z3                    1.000000
z227z238z3                    1.000000
z227z106z3                    1.000000
s256                          5.791596
z256z240z3                    1.000000
z256z238z2                    1.000000
s218                          5.820000
z218z177z2                    1.000000
s110                          5.870000
z110z18z1                     1.000000
z110z33z2                     1.000000
s196                          5.910000
z196z186z2                    1.000000
z196z186z3                    1.000000
s9                            5.974876
z9z18z1                       1.000000
z9z66z1                       1.000000
s248                          4.442110
z248z46z1                     1.000000
z248z66z1                     1.000000
z248z257z1                    1.000000
z248z180z1                    1.000000
z21z106z2                     1.000000
z21z257z1                     1.000000
z46z173z1                     1.000000
z46z197z3                     1.000000
z82z180z1                     1.000000
z126z197z1                    1.000000
z126z257z1                    1.000000
All other variables in the range 1-2093 are 0.
